c description: Random 3-CNF over 15 variables and 45 clauses
p cnf 15 45
2 3 -7 0
4 5 11 0
8 9 -12 0
8 -9 -12 0
3 7 -10 0
6 -7 -12 0
3 -4 6 0
-6 -14 15 0
3 12 -15 0
3 -12 15 0
3 -10 13 0
-10 -14 15 0
-1 -5 -8 0
1 -3 -13 0
6 -9 11 0
1 -12 -14 0
8 -12 -13 0
5 -11 -12 0
-1 2 14 0
-1 2 6 0
-3 -7 -9 0
-10 13 15 0
5 -6 14 0
-7 -11 14 0
-1 8 12 0
6 -8 -13 0
3 9 10 0
11 12 14 0
-2 12 -14 0
5 -10 15 0
4 -7 8 0
-3 7 -10 0
-3 5 15 0
-7 9 15 0
-4 7 -11 0
-1 -8 -11 0
1 -10 -13 0
5 -7 -14 0
3 -7 -8 0
-5 7 11 0
2 6 12 0
-5 10 12 0
-1 -3 7 0
-4 6 13 0
-1 -5 -6 0